c random cnf
p cnf 50 50
-22 30 0
10 33 0
11 32 0
-16 39 0
31 42 0
22 -43 0
14 16 0
-26 -33 0
-14 -30 0
27 32 0
-6 -35 0
-31 45 0
-38 43 0
17 -38 0
-22 -24 0
31 -32 0
3 -9 0
-41 -50 0
14 30 0
-20 35 0
8 -37 0
-2 44 0
24 26 0
-33 47 0
-16 -40 0
-18 35 0
-23 -46 0
-16 37 0
4 19 0
18 -41 0
-34 -35 0
-5 -45 0
19 47 0
17 46 0
-12 -28 0
-17 31 0
-7 -46 0
13 16 0
-6 37 0
-14 20 0
23 -46 0
16 37 0
18 -24 0
16 31 0
4 46 0
-35 48 0
41 -42 0
34 -40 0
1 -32 0
4 -41 0
